projet_m2_wvcp/projet_m2_wvcp/original_wvcp_dzn/r10.clq.dzn
cliques=[{6,0,1,4,7,5,9,3,2,8},{6,0,1,4,7,5,9,3,2,8},{108,127,118,13,19,34,77,2,99,65,47,141},{6,0,1,4,7,5,9,3,2,8},{6,0,1,4,7,5,9,3,2,8},{6,0,1,4,7,5,9,3,2,8},{6,144,101,15,93,132,59,121,81,38,69},{145,39,60,111,49,7,29,133,82,16,94},{6,0,1,4,7,5,9,3,2,8},{6,0,1,4,7,5,9,3,2,8},{43,0,73,105,124,10,137,115,86},{45,139,18,116,11,55,75,32,126},{98,1,76,46,88,12,25,107,140,64,33,117},{108,127,118,13,19,34,77,2,99,65,47,141},{78,35,26,89,128,3,109,66,56,14},{6,144,101,15,93,132,59,121,81,38,69},{145,39,60,111,49,7,29,133,82,16,94},{147,95,61,102,17,135,113,83,51,71,123,21},{45,139,18,116,11,55,75,32,126},{108,127,118,13,19,34,77,2,99,65,47,141},{92,28,80,20,5,143,37,131,58,68},{147,95,61,102,17,135,113,83,51,71,123,21},{52,148,103,30,72,22,96,41,84,8},{104,53,97,85,9,23,42,62,136,149,114},{87,74,63,138,106,24,125,31,44,54},{98,1,76,46,88,12,25,107,140,64,33,117},{78,35,26,89,128,3,109,66,56,14},{28,26,30,24,29,25,27},{92,28,80,20,5,143,37,131,58,68},{145,39,60,111,49,7,29,133,82,16,94},{52,148,103,30,72,22,96,41,84,8},{36,39,35,34,40,38,42,41,37,31,32,33},{36,39,35,34,40,38,42,41,37,31,32,33},{98,1,76,46,88,12,25,107,140,64,33,117},{108,127,118,13,19,34,77,2,99,65,47,141},{36,39,35,34,40,38,42,41,37,31,32,33},{36,39,35,34,40,38,42,41,37,31,32,33},{36,39,35,34,40,38,42,41,37,31,32,33},{6,144,101,15,93,132,59,121,81,38,69},{145,39,60,111,49,7,29,133,82,16,94},{36,39,35,34,40,38,42,41,37,31,32,33},{36,39,35,34,40,38,42,41,37,31,32,33},{36,39,35,34,40,42,38,41,37,31,32,33},{43,45,53,52,46,49,51,50,44,48,47},{43,45,53,52,46,49,51,50,44,48,47},{43,45,53,52,46,49,51,50,44,48,47},{43,45,53,52,46,49,51,50,44,48,47},{108,127,118,13,19,34,77,2,99,65,47,141},{43,45,53,52,46,49,51,50,44,48,47},{145,39,60,111,49,7,29,133,82,16,94},{43,45,53,52,46,49,51,50,44,48,47},{147,95,61,102,17,135,113,83,51,71,123,21},{43,45,53,52,46,49,51,50,44,48,47},{43,45,53,52,46,49,51,50,44,48,47},{87,74,63,138,106,24,125,31,44,54},{45,139,18,116,11,55,75,32,126},{78,35,26,89,128,3,109,66,56,14},{4,57,120,36,100,91,130,79,142,67},{92,28,80,20,5,143,37,131,58,68},{6,144,101,15,93,132,59,121,81,38,69},{145,39,60,111,49,7,29,133,82,16,94},{147,95,61,102,17,135,113,83,51,71,123,21},{104,53,97,85,9,23,42,62,136,149,114},{87,74,63,138,106,24,125,31,44,54},{98,1,76,46,88,12,25,107,140,64,33,117},{108,127,118,13,19,34,77,2,99,65,47,141},{78,35,26,89,128,3,109,66,56,14},{4,120,57,36,100,91,130,79,142,67},{92,28,80,20,5,143,37,131,58,68},{6,144,101,15,93,132,59,121,81,38,69},{63,72,70,69,71,66,65,64,67,68},{147,95,61,102,17,135,113,83,51,71,123,21},{52,148,103,30,72,22,96,41,84,8},{78,74,73,76,85,80,83,81,75,77,79,82,84},{78,74,73,76,85,80,83,81,75,77,79,82,84},{78,74,73,76,85,80,83,81,75,77,79,82,84},{78,74,73,76,85,80,83,81,75,77,79,82,84},{78,74,73,76,85,80,83,81,75,77,79,82,84},{78,74,73,76,85,80,83,81,75,77,79,82,84},{78,74,73,76,85,80,83,81,75,77,79,82,84},{78,74,73,76,85,80,83,81,75,77,79,82,84},{78,74,73,76,85,80,83,81,75,77,79,82,84},{78,74,73,76,85,80,83,81,75,77,79,82,84},{78,74,73,76,85,80,83,81,75,77,79,82,84},{78,74,73,76,85,80,83,81,75,77,79,82,84},{78,74,73,76,85,80,83,81,75,77,79,82,84},{87,95,97,92,93,91,89,90,96,88,86,94},{87,95,97,92,93,91,89,90,96,88,86,94},{87,95,97,92,93,91,89,90,96,88,86,94},{87,95,97,92,93,91,89,90,96,88,86,94},{87,95,97,92,93,91,89,90,96,88,86,94},{87,95,97,92,93,91,89,90,96,88,86,94},{87,95,97,92,93,91,89,90,96,88,86,94},{87,95,97,92,93,91,89,90,96,88,86,94},{87,95,97,92,93,91,89,90,96,88,86,94},{87,95,97,92,93,91,89,90,96,88,86,94},{87,95,97,92,93,91,89,90,96,88,86,94},{87,95,97,92,93,91,89,90,96,88,86,94},{98,1,76,46,88,12,25,107,140,64,33,117},{108,127,118,13,19,34,77,2,99,65,47,141},{4,120,57,36,100,91,130,79,142,67},{6,144,101,15,93,132,59,121,81,38,69},{147,95,61,102,17,135,113,83,51,71,123,21},{52,148,103,30,72,22,96,41,84,8},{104,53,97,85,9,23,42,62,136,149,114},{43,0,73,105,124,10,137,115,86},{87,74,63,138,106,24,125,31,44,54},{98,1,76,46,88,12,25,107,140,64,33,117},{108,127,118,13,19,34,77,2,99,65,47,141},{108,105,111,106,113,110,109,107,112,114},{108,105,111,106,113,110,109,107,112,114},{145,39,60,111,49,7,29,133,82,16,94},{108,105,111,106,113,110,109,107,112,114},{147,95,61,102,17,135,113,83,51,71,123,21},{104,53,97,85,9,23,42,62,136,149,114},{43,0,73,105,124,10,137,115,86},{118,119,120,122,121,116,115,123,117},{98,1,76,46,88,12,25,107,140,64,33,117},{108,127,118,13,19,34,77,2,99,65,47,141},{118,119,120,122,121,116,115,123,117},{4,120,57,36,100,91,130,79,142,67},{6,144,101,15,93,132,59,121,81,38,69},{118,119,120,122,121,116,115,123,117},{147,95,61,102,17,135,113,83,51,71,123,21},{127,129,132,124,128,135,125,133,134,130,131,136,126},{127,129,132,124,128,135,125,133,134,130,131,136,126},{127,129,132,124,128,135,125,133,134,130,131,136,126},{127,129,132,124,128,135,125,133,134,130,131,136,126},{127,129,132,124,128,135,125,133,134,130,131,136,126},{127,129,132,124,128,135,125,133,134,130,131,136,126},{127,129,132,124,128,135,125,133,134,130,131,136,126},{127,129,132,124,128,135,125,133,134,130,131,136,126},{6,144,101,15,93,132,59,121,81,38,69},{127,129,132,124,128,135,125,133,134,130,131,136,126},{127,129,132,124,128,135,125,133,134,130,131,136,126},{127,129,132,124,128,135,125,133,134,130,131,136,126},{127,129,132,124,128,135,125,133,134,130,131,136,126},{145,147,146,144,148,138,139,143,137,142,140,149,141},{145,147,146,144,148,138,139,143,137,142,140,149,141},{145,147,146,144,148,138,139,143,137,142,140,149,141},{145,147,146,144,148,138,139,143,137,142,140,149,141},{145,147,146,144,148,138,139,143,137,142,140,149,141},{145,147,146,144,148,138,139,143,137,142,140,149,141},{145,147,146,144,148,138,139,143,137,142,140,149,141},{145,147,146,144,148,138,139,143,137,142,140,149,141},{145,147,146,144,148,138,139,143,137,142,140,149,141},{145,147,146,144,148,138,139,143,137,142,140,149,141},{145,147,146,144,148,138,139,143,137,142,140,149,141},{145,147,146,144,148,138,139,143,137,142,140,149,141},{145,147,146,144,148,138,139,143,137,142,140,149,141}];
nr_cliques=150;
