projet_m2_wvcp/projet_m2_wvcp/original_wvcp_dzn/r10.dzn
name="r10";
nr_vertices=150;
nr_edges=1409;
neighborhoods=[{1,2,3,4,5,6,7,8,9,10,43,73,86,105,115,124,137},{0,2,3,4,5,6,7,8,9,12,25,33,46,64,76,88,98,107,117,140},{0,1,3,4,5,6,7,8,9,13,19,34,47,65,77,99,108,118,127,141},{0,1,2,4,5,6,7,8,9,14,26,35,56,66,78,89,109,128},{0,1,2,3,5,6,7,8,9,36,57,67,79,91,100,120,130,142},{0,1,2,3,4,6,7,8,9,20,28,37,58,68,80,92,131,143},{0,1,2,3,4,5,7,8,9,15,38,59,69,81,93,101,121,132,144},{0,1,2,3,4,5,6,8,9,16,29,39,49,60,82,94,111,133,145},{0,1,2,3,4,5,6,7,9,22,30,41,52,72,84,96,103,148},{0,1,2,3,4,5,6,7,8,23,42,53,62,85,97,104,114,136,149},{0,11,12,13,14,15,16,17,43,73,86,105,115,124,137},{10,12,13,14,15,16,17,18,32,45,55,75,116,126,139},{1,10,11,13,14,15,16,17,25,33,46,64,76,88,98,107,117,140},{2,10,11,12,14,15,16,17,19,34,47,65,77,99,108,118,127,141},{3,10,11,12,13,15,16,17,26,35,56,66,78,89,109,128},{6,10,11,12,13,14,16,17,38,59,69,81,93,101,121,132,144},{7,10,11,12,13,14,15,17,29,39,49,60,82,94,111,133,145},{10,11,12,13,14,15,16,21,51,61,71,83,95,102,113,123,135,147},{11,19,20,21,22,23,32,45,55,75,116,126,139},{2,13,18,20,21,22,23,34,47,65,77,99,108,118,127,141},{5,18,19,21,22,23,28,37,58,68,80,92,131,143},{17,18,19,20,22,23,51,61,71,83,95,102,113,123,135,147},{8,18,19,20,21,23,30,41,52,72,84,96,103,148},{9,18,19,20,21,22,42,53,62,85,97,104,114,136,149},{25,26,27,28,29,30,31,44,54,63,74,87,106,125,138},{1,12,24,26,27,28,29,30,33,46,64,76,88,98,107,117,140},{3,14,24,25,27,28,29,30,35,56,66,78,89,109,128},{24,25,26,28,29,30,48,90,110,119,129},{5,20,24,25,26,27,29,30,37,58,68,80,92,131,143},{7,16,24,25,26,27,28,30,39,49,60,82,94,111,133,145},{8,22,24,25,26,27,28,29,41,52,72,84,96,103,148},{24,32,33,34,35,36,37,38,39,40,41,42,44,54,63,74,87,106,125,138},{11,18,31,33,34,35,36,37,38,39,40,41,42,45,55,75,116,126,139},{1,12,25,31,32,34,35,36,37,38,39,40,41,42,46,64,76,88,98,107,117,140},{2,13,19,31,32,33,35,36,37,38,39,40,41,42,47,65,77,99,108,118,127,141},{3,14,26,31,32,33,34,36,37,38,39,40,41,42,56,66,78,89,109,128},{4,31,32,33,34,35,37,38,39,40,41,42,57,67,79,91,100,120,130,142},{5,20,28,31,32,33,34,35,36,38,39,40,41,42,58,68,80,92,131,143},{6,15,31,32,33,34,35,36,37,39,40,41,42,59,69,81,93,101,121,132,144},{7,16,29,31,32,33,34,35,36,37,38,40,41,42,49,60,82,94,111,133,145},{31,32,33,34,35,36,37,38,39,41,42,50,70,112,122,134,146},{8,22,30,31,32,33,34,35,36,37,38,39,40,42,52,72,84,96,103,148},{9,23,31,32,33,34,35,36,37,38,39,40,41,53,62,85,97,104,114,136,149},{0,10,44,45,46,47,48,49,50,51,52,53,73,86,105,115,124,137},{24,31,43,45,46,47,48,49,50,51,52,53,54,63,74,87,106,125,138},{11,18,32,43,44,46,47,48,49,50,51,52,53,55,75,116,126,139},{1,12,25,33,43,44,45,47,48,49,50,51,52,53,64,76,88,98,107,117,140},{2,13,19,34,43,44,45,46,48,49,50,51,52,53,65,77,99,108,118,127,141},{27,43,44,45,46,47,49,50,51,52,53,90,110,119,129},{7,16,29,39,43,44,45,46,47,48,50,51,52,53,60,82,94,111,133,145},{40,43,44,45,46,47,48,49,51,52,53,70,112,122,134,146},{17,21,43,44,45,46,47,48,49,50,52,53,61,71,83,95,102,113,123,135,147},{8,22,30,41,43,44,45,46,47,48,49,50,51,53,72,84,96,103,148},{9,23,42,43,44,45,46,47,48,49,50,51,52,62,85,97,104,114,136,149},{24,31,44,55,56,57,58,59,60,61,62,63,74,87,106,125,138},{11,18,32,45,54,56,57,58,59,60,61,62,75,116,126,139},{3,14,26,35,54,55,57,58,59,60,61,62,66,78,89,109,128},{4,36,54,55,56,58,59,60,61,62,67,79,91,100,120,130,142},{5,20,28,37,54,55,56,57,59,60,61,62,68,80,92,131,143},{6,15,38,54,55,56,57,58,60,61,62,69,81,93,101,121,132,144},{7,16,29,39,49,54,55,56,57,58,59,61,62,82,94,111,133,145},{17,21,51,54,55,56,57,58,59,60,62,71,83,95,102,113,123,135,147},{9,23,42,53,54,55,56,57,58,59,60,61,85,97,104,114,136,149},{24,31,44,54,64,65,66,67,68,69,70,71,72,74,87,106,125,138},{1,12,25,33,46,63,65,66,67,68,69,70,71,72,76,88,98,107,117,140},{2,13,19,34,47,63,64,66,67,68,69,70,71,72,77,99,108,118,127,141},{3,14,26,35,56,63,64,65,67,68,69,70,71,72,78,89,109,128},{4,36,57,63,64,65,66,68,69,70,71,72,79,91,100,120,130,142},{5,20,28,37,58,63,64,65,66,67,69,70,71,72,80,92,131,143},{6,15,38,59,63,64,65,66,67,68,70,71,72,81,93,101,121,132,144},{40,50,63,64,65,66,67,68,69,71,72,112,122,134,146},{17,21,51,61,63,64,65,66,67,68,69,70,72,83,95,102,113,123,135,147},{8,22,30,41,52,63,64,65,66,67,68,69,70,71,84,96,103,148},{0,10,43,74,75,76,77,78,79,80,81,82,83,84,85,86,105,115,124,137},{24,31,44,54,63,73,75,76,77,78,79,80,81,82,83,84,85,87,106,125,138},{11,18,32,45,55,73,74,76,77,78,79,80,81,82,83,84,85,116,126,139},{1,12,25,33,46,64,73,74,75,77,78,79,80,81,82,83,84,85,88,98,107,117,140},{2,13,19,34,47,65,73,74,75,76,78,79,80,81,82,83,84,85,99,108,118,127,141},{3,14,26,35,56,66,73,74,75,76,77,79,80,81,82,83,84,85,89,109,128},{4,36,57,67,73,74,75,76,77,78,80,81,82,83,84,85,91,100,120,130,142},{5,20,28,37,58,68,73,74,75,76,77,78,79,81,82,83,84,85,92,131,143},{6,15,38,59,69,73,74,75,76,77,78,79,80,82,83,84,85,93,101,121,132,144},{7,16,29,39,49,60,73,74,75,76,77,78,79,80,81,83,84,85,94,111,133,145},{17,21,51,61,71,73,74,75,76,77,78,79,80,81,82,84,85,95,102,113,123,135,147},{8,22,30,41,52,72,73,74,75,76,77,78,79,80,81,82,83,85,96,103,148},{9,23,42,53,62,73,74,75,76,77,78,79,80,81,82,83,84,97,104,114,136,149},{0,10,43,73,87,88,89,90,91,92,93,94,95,96,97,105,115,124,137},{24,31,44,54,63,74,86,88,89,90,91,92,93,94,95,96,97,106,125,138},{1,12,25,33,46,64,76,86,87,89,90,91,92,93,94,95,96,97,98,107,117,140},{3,14,26,35,56,66,78,86,87,88,90,91,92,93,94,95,96,97,109,128},{27,48,86,87,88,89,91,92,93,94,95,96,97,110,119,129},{4,36,57,67,79,86,87,88,89,90,92,93,94,95,96,97,100,120,130,142},{5,20,28,37,58,68,80,86,87,88,89,90,91,93,94,95,96,97,131,143},{6,15,38,59,69,81,86,87,88,89,90,91,92,94,95,96,97,101,121,132,144},{7,16,29,39,49,60,82,86,87,88,89,90,91,92,93,95,96,97,111,133,145},{17,21,51,61,71,83,86,87,88,89,90,91,92,93,94,96,97,102,113,123,135,147},{8,22,30,41,52,72,84,86,87,88,89,90,91,92,93,94,95,97,103,148},{9,23,42,53,62,85,86,87,88,89,90,91,92,93,94,95,96,104,114,136,149},{1,12,25,33,46,64,76,88,99,100,101,102,103,104,107,117,140},{2,13,19,34,47,65,77,98,100,101,102,103,104,108,118,127,141},{4,36,57,67,79,91,98,99,101,102,103,104,120,130,142},{6,15,38,59,69,81,93,98,99,100,102,103,104,121,132,144},{17,21,51,61,71,83,95,98,99,100,101,103,104,113,123,135,147},{8,22,30,41,52,72,84,96,98,99,100,101,102,104,148},{9,23,42,53,62,85,97,98,99,100,101,102,103,114,136,149},{0,10,43,73,86,106,107,108,109,110,111,112,113,114,115,124,137},{24,31,44,54,63,74,87,105,107,108,109,110,111,112,113,114,125,138},{1,12,25,33,46,64,76,88,98,105,106,108,109,110,111,112,113,114,117,140},{2,13,19,34,47,65,77,99,105,106,107,109,110,111,112,113,114,118,127,141},{3,14,26,35,56,66,78,89,105,106,107,108,110,111,112,113,114,128},{27,48,90,105,106,107,108,109,111,112,113,114,119,129},{7,16,29,39,49,60,82,94,105,106,107,108,109,110,112,113,114,133,145},{40,50,70,105,106,107,108,109,110,111,113,114,122,134,146},{17,21,51,61,71,83,95,102,105,106,107,108,109,110,111,112,114,123,135,147},{9,23,42,53,62,85,97,104,105,106,107,108,109,110,111,112,113,136,149},{0,10,43,73,86,105,116,117,118,119,120,121,122,123,124,137},{11,18,32,45,55,75,115,117,118,119,120,121,122,123,126,139},{1,12,25,33,46,64,76,88,98,107,115,116,118,119,120,121,122,123,140},{2,13,19,34,47,65,77,99,108,115,116,117,119,120,121,122,123,127,141},{27,48,90,110,115,116,117,118,120,121,122,123,129},{4,36,57,67,79,91,100,115,116,117,118,119,121,122,123,130,142},{6,15,38,59,69,81,93,101,115,116,117,118,119,120,122,123,132,144},{40,50,70,112,115,116,117,118,119,120,121,123,134,146},{17,21,51,61,71,83,95,102,113,115,116,117,118,119,120,121,122,135,147},{0,10,43,73,86,105,115,125,126,127,128,129,130,131,132,133,134,135,136,137},{24,31,44,54,63,74,87,106,124,126,127,128,129,130,131,132,133,134,135,136,138},{11,18,32,45,55,75,116,124,125,127,128,129,130,131,132,133,134,135,136,139},{2,13,19,34,47,65,77,99,108,118,124,125,126,128,129,130,131,132,133,134,135,136,141},{3,14,26,35,56,66,78,89,109,124,125,126,127,129,130,131,132,133,134,135,136},{27,48,90,110,119,124,125,126,127,128,130,131,132,133,134,135,136},{4,36,57,67,79,91,100,120,124,125,126,127,128,129,131,132,133,134,135,136,142},{5,20,28,37,58,68,80,92,124,125,126,127,128,129,130,132,133,134,135,136,143},{6,15,38,59,69,81,93,101,121,124,125,126,127,128,129,130,131,133,134,135,136,144},{7,16,29,39,49,60,82,94,111,124,125,126,127,128,129,130,131,132,134,135,136,145},{40,50,70,112,122,124,125,126,127,128,129,130,131,132,133,135,136,146},{17,21,51,61,71,83,95,102,113,123,124,125,126,127,128,129,130,131,132,133,134,136,147},{9,23,42,53,62,85,97,104,114,124,125,126,127,128,129,130,131,132,133,134,135,149},{0,10,43,73,86,105,115,124,138,139,140,141,142,143,144,145,146,147,148,149},{24,31,44,54,63,74,87,106,125,137,139,140,141,142,143,144,145,146,147,148,149},{11,18,32,45,55,75,116,126,137,138,140,141,142,143,144,145,146,147,148,149},{1,12,25,33,46,64,76,88,98,107,117,137,138,139,141,142,143,144,145,146,147,148,149},{2,13,19,34,47,65,77,99,108,118,127,137,138,139,140,142,143,144,145,146,147,148,149},{4,36,57,67,79,91,100,120,130,137,138,139,140,141,143,144,145,146,147,148,149},{5,20,28,37,58,68,80,92,131,137,138,139,140,141,142,144,145,146,147,148,149},{6,15,38,59,69,81,93,101,121,132,137,138,139,140,141,142,143,145,146,147,148,149},{7,16,29,39,49,60,82,94,111,133,137,138,139,140,141,142,143,144,146,147,148,149},{40,50,70,112,122,134,137,138,139,140,141,142,143,144,145,147,148,149},{17,21,51,61,71,83,95,102,113,123,135,137,138,139,140,141,142,143,144,145,146,148,149},{8,22,30,41,52,72,84,96,103,137,138,139,140,141,142,143,144,145,146,147,149},{9,23,42,53,62,85,97,104,114,136,137,138,139,140,141,142,143,144,145,146,147,148}];
weights=[648,617,320,366,606,468,652,504,213,417,465,396,365,644,227,565,314,479,426,526,470,235,468,385,441,355,539,256,544,411,535,324,293,212,415,552,575,332,350,565,359,338,350,670,247,613,515,227,233,509,258,321,589,605,224,377,229,593,242,478,545,552,253,508,230,250,278,214,207,332,453,319,502,600,601,365,556,360,663,334,475,378,314,386,289,538,325,629,385,445,392,478,558,551,313,608,386,598,674,258,510,580,544,539,662,589,461,275,694,299,384,539,265,390,213,378,408,205,672,642,593,470,504,269,531,382,241,676,439,573,366,265,549,371,367,430,248,429,501,430,255,226,318,429,603,647,610,636,563,233];
